Route #1: 54 77 83 2 17 69 105 64 94 82
Route #2: 57 63 31 40 13 85 21 74
Route #3: 96 45 100 51 60 76 44 5
Route #4: 71 49 99 11 34 72 29
Route #5: 87 43 97 93 28 101 103 53
Route #6: 67 48 8 36 91 88 58 14
Route #7: 7 75 84 9 12 104 1
Route #8: 62 26 90 24 102 92 52
Route #9: 78 19 27 37 79 46 66 15
Route #10: 22 33
Route #11: 86 18 41 10 16 20 56
Route #12: 59 89 30 42 23 3 32 73 35
Route #13: 39 50 81 6 70 4 98 55
Route #14: 68 95 38 65 80 61 47 25
Cost 26364
